(declare-const X String)
; corep\x2Edmcast\x2Ecom[^\n\r]*Referer\x3a.*is[^\n\r]*KeyloggerExplorerfileserverSI\|Server\|www\x2Emyarmory\x2Ecom
(assert (str.in_re X (re.++ (str.to_re "corep.dmcast.com") (re.* (re.union (str.to_re "\u{a}") (str.to_re "\u{d}"))) (str.to_re "Referer:") (re.* re.allchar) (str.to_re "is") (re.* (re.union (str.to_re "\u{a}") (str.to_re "\u{d}"))) (str.to_re "KeyloggerExplorerfileserverSI|Server|\u{13}www.myarmory.com\u{a}"))))
; ^([0-9]|[1-9][0-9]|[1-9][0-9][0-9])$
(assert (str.in_re X (re.++ (re.union (re.range "0" "9") (re.++ (re.range "1" "9") (re.range "0" "9")) (re.++ (re.range "1" "9") (re.range "0" "9") (re.range "0" "9"))) (str.to_re "\u{a}"))))
; nick_name=CIA-Test\d+url=http\x3A\d+\x2FNFO\x2CRegistered\x28BDLL\x29
(assert (not (str.in_re X (re.++ (str.to_re "nick_name=CIA-Test") (re.+ (re.range "0" "9")) (str.to_re "url=http:\u{1b}") (re.+ (re.range "0" "9")) (str.to_re "/NFO,Registered(BDLL)\u{13}\u{a}")))))
(check-sat)

(exit)
